
  22   10
  10   10   10   10   10   10   10   10   10   10

   0   0   0   0   0   0   0   0   0   0   0   6 2 4 10 13 14 21 
   1   0   0   0   0   0   0  10   0   0   0   2 19 3 
   9   0   0   0  10   0   0   0   0   0   0   2 18 5 
  10   0   0   0   0  10   0   0   0   0   0   2 18 5 
   3   0  10   0   0   0   0   0   0   0   0   1 6 
   5   0   0   0  10   0   0   0   0   0   0   1 7 
   5  10   0   0   0   0   0   0   0   0   0   2 17 8 
   1   0  10   0   0   0   0   0   0   0   0   1 9 
   1   0  10   0   0   0   0   0   0   0   0   2 16 11 
   2   0   0  10   0   0   0   0   0   0   0   2 20 15 
   2   0   0   0   0   0   0   0  10   0   0   1 12 
   6   0   0   0   0  10   0   0   0   0   0   1 15 
   4   0  10   0   0   0   0   0   0   0   0   1 19 
   2   0   0   0   0  10   0   0   0   0   0   1 15 
   7  10   0   0   0   0   0   0   0   0   0   1 22
   8  10   0   0   0   0   0   0   0   0   0   1 22
   5   0  10   0   0   0   0   0   0   0   0   1 22
   3   0   0   0   0   0   0   0   0   0  10   1 22
   8   0   0  10   0   0   0   0   0   0   0   1 22
   5   0  10   0   0   0   0   0   0   0   0   1 22
   3   0   0   0   0   0   0   0  10   0   0   1 22
   0   0   0   0   0   0   0   0   0   0   0   0 
